! MP2 UHF 6-31G(d) opt NumFreq NoFrozenCore VERYTIGHTSCF VERYTIGHTOPT
%geom
MaxIter 200
end

* XYZfile 0 2 input.xyz